35 15
1 1 1 1 1
1 1 1 1 1
1 1 1 1 1
3
1 12 15
3
1 13 14
3
1 2 9
3
1 3 7
3
1 4 10
3
1 5 8
3
1 6 11
3
2 11 13
3
2 14 15
3
2 3 10
3
2 4 8
3
2 5 6
3
2 7 12
3
3 11 15
3
3 12 14
3
3 4 6
3
3 5 9
3
3 8 13
3
4 11 12
3
4 13 15
3
4 5 7
3
4 9 14
3
5 10 15
3
5 11 14
3
5 12 13
3
6 10 13
3
6 7 14
3
6 8 12
3
6 9 15
3
7 10 11
3
7 8 15
3
7 9 13
3
8 10 14
3
8 9 11
3
9 10 12
